5 5
1 79 3 51 0 63 2 80 4 87
4 1 3 19 1 35 0 63 2 94
3 81 0 26 4 13 2 86 1 23
4 97 1 91 3 35 0 12 2 9
1 98 3 78 4 67 2 44 0 61
-1
0 1 3 4 5
0 1 3 4 5
0 2 5
0 1 5
0 4 5
-2
84 267 429 394
1 70 159 277
131 337
148 307
393 526

469 5
11 2 8 18 24
0 20 16 7 14
13 3 23 9 19
10 1 6 21 17
5 15 12 22 4
